NAME: tsp35_1
COMMENT: 35-tsp problem (Padberg/Rinaldi)
TYPE: TSP
DIMENSION: 35
EDGE_WEIGHT_TYPE : EUC_2D
NODE_COORD_SECTION
1 18 11
2 20 11
3 36 24
4 30 2
5 3 17
6 37 26
7 19 38
8 19 25
9 16 27
10 10 12
11 0 38
12 23 33
13 36 32
14 0 26
15 32 26
16 19 4
17 31 26
18 10 29
19 30 7
20 28 18
21 18 12
22 38 37
23 27 29
24 36 38
25 26 6
26 28 23
27 30 16
28 4 39
29 36 7
30 17 1
31 38 10
32 22 6
33 31 21
34 6 4
35 16 0
